 O Ti                                   
   1.00000000000000     
    13.2086402734845763    0.0000000000000000    0.0000000000000000
     0.0000000000000000   12.0814303700631598    0.0000000000000000
     0.0000000000000000    0.0000000000000000   31.8129604102268644
   O    Ti
   192    96
Direct
  0.0486958790990926  0.3125000000000000  0.5124467009476810
  0.9553278544634938  0.4375000000000000  0.2351856992464461
  0.5486958790990926  0.8125000000000000  0.3850239629790241
  0.8975835114117108  0.4375000000000000  0.3429826072914059
  0.6998082467864815  0.4375000000000000  0.3429826072914059
  0.7986958790990926  0.3125000000000000  0.2791976098462138
  0.7986958790990926  0.3125000000000000  0.6149760370209759
  0.6998082467864815  0.1875000000000000  0.3429826072914059
  0.8975835114117108  0.1875000000000000  0.3429826072914059
  0.6998082467864815  0.9375000000000000  0.3429826072914059
  0.7986958790990926  0.0625000000000000  0.6149760370209759
  0.7986958790990926  0.0625000000000000  0.6962690556096066
  0.6420639037346985  0.4375000000000000  0.2351856992464461
  0.6475835114117108  0.1875000000000000  0.6570173927085944
  0.5486958790990926  0.0625000000000000  0.7208023901537864
  0.5486958790990926  0.3125000000000000  0.8017555687601047
  0.8920639037346985  0.1875000000000000  0.7648143007535539
  0.7053278544634938  0.1875000000000000  0.7648143007535539
  0.7986958790990926  0.0625000000000000  0.1982444312398955
  0.7986958790990926  0.0625000000000000  0.2791976098462138
  0.6420639037346985  0.1875000000000000  0.2351856992464461
  0.9553278544634938  0.1875000000000000  0.2351856992464461
  0.5486958790990926  0.0625000000000000  0.3037309443903933
  0.5486958790990926  0.3125000000000000  0.3850239629790241
  0.2986958790990926  0.0625000000000000  0.2791976098462138
  0.9498082467864815  0.1875000000000000  0.6570173927085944
  0.2986958790990926  0.0625000000000000  0.1982444312398955
  0.7986958790990926  0.3125000000000000  0.1982444312398955
  0.7053278544634938  0.4375000000000000  0.7648143007535539
  0.2986958790990926  0.3125000000000000  0.1982444312398955
  0.1420639037346987  0.1875000000000000  0.2351856992464461
  0.4553278544634936  0.1875000000000000  0.2351856992464461
  0.0486958790990926  0.0625000000000000  0.3037309443903933
  0.0486958790990926  0.3125000000000000  0.3850239629790241
  0.3975835114117109  0.1875000000000000  0.3429826072914059
  0.1998082467864814  0.1875000000000000  0.3429826072914059
  0.2986958790990926  0.3125000000000000  0.2791976098462138
  0.2986958790990926  0.3125000000000000  0.6149760370209759
  0.1475835114117109  0.4375000000000000  0.6570173927085944
  0.4498082467864813  0.4375000000000000  0.6570173927085944
  0.7986958790990926  0.3125000000000000  0.6962690556096066
  0.0486958790990926  0.3125000000000000  0.7208023901537864
  0.3920639037346986  0.4375000000000000  0.7648143007535539
  0.2053278544634935  0.4375000000000000  0.7648143007535539
  0.2986958790990926  0.3125000000000000  0.6962690556096066
  0.5486958790990926  0.8125000000000000  0.3037309443903933
  0.5486958790990926  0.0625000000000000  0.3850239629790241
  0.8975835114117108  0.9375000000000000  0.3429826072914059
  0.6475835114117108  0.4375000000000000  0.6570173927085944
  0.9498082467864815  0.4375000000000000  0.6570173927085944
  0.5486958790990926  0.3125000000000000  0.7208023901537864
  0.5486958790990926  0.8125000000000000  0.8017555687601047
  0.8920639037346985  0.4375000000000000  0.7648143007535539
  0.0486958790990926  0.8125000000000000  0.8017555687601047
  0.1998082467864814  0.4375000000000000  0.3429826072914059
  0.3920639037346986  0.1875000000000000  0.7648143007535539
  0.5486958790990926  0.5625000000000000  0.3037309443903933
  0.6998082467864815  0.6875000000000000  0.3429826072914059
  0.4553278544634936  0.6875000000000000  0.2351856992464461
  0.1420639037346987  0.9375000000000000  0.2351856992464461
  0.4498082467864813  0.9375000000000000  0.6570173927085944
  0.0486958790990926  0.8125000000000000  0.7208023901537864
  0.0486958790990926  0.0625000000000000  0.8017555687601047
  0.3920639037346986  0.9375000000000000  0.7648143007535539
  0.2053278544634935  0.9375000000000000  0.7648143007535539
  0.2986958790990926  0.8125000000000000  0.1982444312398955
  0.1475835114117109  0.9375000000000000  0.6570173927085944
  0.2986958790990926  0.8125000000000000  0.2791976098462138
  0.8975835114117108  0.6875000000000000  0.3429826072914059
  0.4553278544634936  0.9375000000000000  0.2351856992464461
  0.0486958790990926  0.0625000000000000  0.3850239629790241
  0.3975835114117109  0.9375000000000000  0.3429826072914059
  0.1998082467864814  0.9375000000000000  0.3429826072914059
  0.2986958790990926  0.0625000000000000  0.6149760370209759
  0.4498082467864813  0.1875000000000000  0.6570173927085944
  0.2986958790990926  0.0625000000000000  0.6962690556096066
  0.2986958790990926  0.8125000000000000  0.6962690556096066
  0.2986958790990926  0.8125000000000000  0.6149760370209759
  0.0486958790990926  0.0625000000000000  0.7208023901537864
  0.1475835114117109  0.1875000000000000  0.6570173927085944
  0.0486958790990926  0.3125000000000000  0.8017555687601047
  0.0486958790990926  0.8125000000000000  0.3037309443903933
  0.0486958790990926  0.5625000000000000  0.3850239629790241
  0.2986958790990926  0.5625000000000000  0.6149760370209759
  0.2986958790990926  0.5625000000000000  0.6962690556096066
  0.9553278544634938  0.6875000000000000  0.2351856992464461
  0.6420639037346985  0.6875000000000000  0.2351856992464461
  0.7986958790990926  0.5625000000000000  0.2791976098462138
  0.7986958790990926  0.5625000000000000  0.1982444312398955
  0.7053278544634938  0.6875000000000000  0.7648143007535539
  0.8920639037346985  0.6875000000000000  0.7648143007535539
  0.5486958790990926  0.5625000000000000  0.7208023901537864
  0.9498082467864815  0.6875000000000000  0.6570173927085944
  0.6475835114117108  0.6875000000000000  0.6570173927085944
  0.7986958790990926  0.5625000000000000  0.6962690556096066
  0.7986958790990926  0.5625000000000000  0.6149760370209759
  0.5486958790990926  0.5625000000000000  0.3850239629790241
  0.5486958790990926  0.5625000000000000  0.8017555687601047
  0.1998082467864814  0.6875000000000000  0.3429826072914059
  0.3975835114117109  0.6875000000000000  0.3429826072914059
  0.0486958790990926  0.5625000000000000  0.3037309443903933
  0.2053278544634935  0.1875000000000000  0.7648143007535539
  0.1420639037346987  0.6875000000000000  0.2351856992464461
  0.2986958790990926  0.5625000000000000  0.2791976098462138
  0.2986958790990926  0.5625000000000000  0.1982444312398955
  0.2053278544634935  0.6875000000000000  0.7648143007535539
  0.3920639037346986  0.6875000000000000  0.7648143007535539
  0.0486958790990926  0.5625000000000000  0.7208023901537864
  0.4498082467864813  0.6875000000000000  0.6570173927085944
  0.1475835114117109  0.6875000000000000  0.6570173927085944
  0.1420639037346987  0.4375000000000000  0.2351856992464461
  0.9553278544634938  0.9375000000000000  0.2351856992464461
  0.5486958790990926  0.3125000000000000  0.3037309443903933
  0.6420639037346985  0.9375000000000000  0.2351856992464461
  0.7015592926716452  0.9375000000000000  0.5518959980662649
  0.7986958790990926  0.0625000000000000  0.4064218303666542
  0.7986958790990926  0.0625000000000000  0.4875532990523188
  0.6458324655265471  0.1875000000000000  0.4481040019337348
  0.9515592926716452  0.1875000000000000  0.4481040019337348
  0.5486958790990926  0.0625000000000000  0.5124467009476810
  0.5486958790990926  0.3125000000000000  0.5935781696333456
  0.2986958790990926  0.0625000000000000  0.4875532990523189
  0.2986958790990926  0.0625000000000000  0.4064218303666542
  0.2015592926716455  0.4375000000000000  0.5518959980662649
  0.5486958790990926  0.5625000000000000  0.5124467009476810
  0.8958324655265471  0.1875000000000000  0.5518959980662649
  0.9515592926716452  0.6875000000000000  0.4481040019337348
  0.7986958790990926  0.5625000000000000  0.4875532990523188
  0.7986958790990926  0.5625000000000000  0.4064218303666542
  0.5486958790990926  0.5625000000000000  0.5935781696333456
  0.2015592926716455  0.6875000000000000  0.5518959980662649
  0.3958324655265469  0.6875000000000000  0.5518959980662649
  0.0486958790990926  0.5625000000000000  0.5124467009476810
  0.1458324655265468  0.6875000000000000  0.4481040019337348
  0.2986958790990926  0.5625000000000000  0.4875532990523188
  0.2986958790990926  0.5625000000000000  0.4064218303666542
  0.0486958790990926  0.5625000000000000  0.5935781696333456
  0.8958324655265471  0.6875000000000000  0.5518959980662649
  0.6458324655265471  0.6875000000000000  0.4481040019337348
  0.7015592926716452  0.1875000000000000  0.5518959980662649
  0.7986958790990926  0.3125000000000000  0.4875532990523189
  0.7015592926716452  0.4375000000000000  0.5518959980662649
  0.0486958790990926  0.8125000000000000  0.5935781696333456
  0.3958324655265469  0.4375000000000000  0.5518959980662649
  0.4515592926716454  0.4375000000000000  0.4481040019337348
  0.7986958790990926  0.8125000000000000  0.4064218303666542
  0.7986958790990926  0.8125000000000000  0.4875532990523188
  0.6458324655265471  0.9375000000000000  0.4481040019337348
  0.9515592926716452  0.9375000000000000  0.4481040019337348
  0.1458324655265468  0.4375000000000000  0.4481040019337348
  0.2986958790990926  0.3125000000000000  0.4064218303666542
  0.1458324655265468  0.1875000000000000  0.4481040019337348
  0.4515592926716454  0.1875000000000000  0.4481040019337348
  0.0486958790990926  0.0625000000000000  0.5124467009476810
  0.0486958790990926  0.3125000000000000  0.5935781696333456
  0.3958324655265469  0.1875000000000000  0.5518959980662649
  0.2015592926716455  0.1875000000000000  0.5518959980662649
  0.2986958790990926  0.3125000000000000  0.4875532990523188
  0.5486958790990926  0.8125000000000000  0.5124467009476810
  0.5486958790990926  0.0625000000000000  0.5935781696333456
  0.8958324655265471  0.9375000000000000  0.5518959980662649
  0.7986958790990926  0.3125000000000000  0.4064218303666542
  0.6458324655265471  0.4375000000000000  0.4481040019337348
  0.9515592926716452  0.4375000000000000  0.4481040019337348
  0.5486958790990926  0.3125000000000000  0.5124467009476810
  0.5486958790990926  0.8125000000000000  0.7208023901537864
  0.8958324655265471  0.4375000000000000  0.5518959980662649
  0.7015592926716452  0.6875000000000000  0.5518959980662649
  0.4515592926716454  0.6875000000000000  0.4481040019337348
  0.5486958790990926  0.8125000000000000  0.5935781696333456
  0.2986958790990926  0.8125000000000000  0.4064218303666542
  0.7986958790990926  0.8125000000000000  0.2791976098462138
  0.8920639037346985  0.9375000000000000  0.7648143007535539
  0.5486958790990926  0.0625000000000000  0.8017555687601047
  0.9498082467864815  0.9375000000000000  0.6570173927085944
  0.4553278544634936  0.4375000000000000  0.2351856992464461
  0.1458324655265468  0.9375000000000000  0.4481040019337348
  0.6475835114117108  0.9375000000000000  0.6570173927085944
  0.7986958790990926  0.8125000000000000  0.6962690556096066
  0.7986958790990926  0.8125000000000000  0.6149760370209759
  0.7986958790990926  0.8125000000000000  0.1982444312398955
  0.3975835114117109  0.4375000000000000  0.3429826072914059
  0.0486958790990926  0.3125000000000000  0.3037309443903933
  0.0486958790990926  0.5625000000000000  0.8017555687601047
  0.2015592926716455  0.9375000000000000  0.5518959980662649
  0.3958324655265469  0.9375000000000000  0.5518959980662649
  0.0486958790990926  0.0625000000000000  0.5935781696333456
  0.0486958790990926  0.8125000000000000  0.5124467009476810
  0.4515592926716454  0.9375000000000000  0.4481040019337348
  0.2986958790990926  0.8125000000000000  0.4875532990523188
  0.0486958790990926  0.8125000000000000  0.3850239629790241
  0.7053278544634938  0.9375000000000000  0.7648143007535539
  0.5486958790990926  0.0625000000000000  0.2454527190747696
  0.7986958790990926  0.1875000000000000  0.6526559643830755
  0.2986958790990926  0.3125000000000000  0.7545472809252300
  0.5486958790990926  0.0625000000000000  0.6614309058609089
  0.5486958790990926  0.1875000000000000  0.7674417334677209
  0.7986958790990926  0.0625000000000000  0.3385690941390911
  0.7986958790990926  0.1875000000000000  0.2325582665322794
  0.5486958790990926  0.1875000000000000  0.3473440356169249
  0.2986958790990926  0.4375000000000000  0.6526559643830755
  0.7986958790990926  0.3125000000000000  0.7545472809252300
  0.7986958790990926  0.4375000000000000  0.6526559643830755
  0.5486958790990926  0.3125000000000000  0.6614309058609089
  0.5486958790990926  0.4375000000000000  0.7674417334677209
  0.7986958790990926  0.0625000000000000  0.7545472809252300
  0.2986958790990926  0.8125000000000000  0.3385690941390911
  0.2986958790990926  0.5625000000000000  0.3385690941390911
  0.2986958790990926  0.6875000000000000  0.2325582665322794
  0.2986958790990926  0.1875000000000000  0.2325582665322794
  0.2986958790990926  0.0625000000000000  0.3385690941390911
  0.0486958790990926  0.1875000000000000  0.7674417334677209
  0.0486958790990926  0.0625000000000000  0.6614309058609089
  0.2986958790990926  0.1875000000000000  0.6526559643830755
  0.2986958790990926  0.0625000000000000  0.7545472809252300
  0.0486958790990926  0.9375000000000000  0.3473440356169249
  0.0486958790990926  0.8125000000000000  0.2454527190747696
  0.2986958790990926  0.9375000000000000  0.2325582665322794
  0.0486958790990926  0.6875000000000000  0.3473440356169249
  0.0486958790990926  0.9375000000000000  0.7674417334677209
  0.0486958790990926  0.8125000000000000  0.6614309058609089
  0.2986958790990926  0.9375000000000000  0.6526559643830755
  0.0486958790990926  0.0625000000000000  0.2454527190747696
  0.2986958790990926  0.8125000000000000  0.7545472809252300
  0.5486958790990926  0.6875000000000000  0.3473440356169249
  0.5486958790990926  0.5625000000000000  0.2454527190747696
  0.7986958790990926  0.6875000000000000  0.2325582665322794
  0.7986958790990926  0.5625000000000000  0.3385690941390911
  0.5486958790990926  0.6875000000000000  0.7674417334677209
  0.5486958790990926  0.5625000000000000  0.6614309058609089
  0.7986958790990926  0.6875000000000000  0.6526559643830755
  0.7986958790990926  0.5625000000000000  0.7545472809252300
  0.2986958790990926  0.5625000000000000  0.7545472809252300
  0.2986958790990926  0.6875000000000000  0.6526559643830755
  0.0486958790990926  0.5625000000000000  0.6614309058609089
  0.0486958790990926  0.6875000000000000  0.7674417334677209
  0.7986958790990926  0.3125000000000000  0.3385690941390911
  0.5486958790990926  0.3125000000000000  0.2454527190747696
  0.7986958790990926  0.4375000000000000  0.2325582665322794
  0.7986958790990926  0.9375000000000000  0.6526559643830755
  0.0486958790990926  0.5625000000000000  0.2454527190747696
  0.2986958790990926  0.5625000000000000  0.5484655925410822
  0.2986958790990926  0.6875000000000000  0.4449829740978801
  0.0486958790990926  0.1875000000000000  0.3473440356169249
  0.0486958790990926  0.0625000000000000  0.4515344074589178
  0.2986958790990926  0.8125000000000000  0.5484655925410822
  0.5486958790990926  0.0625000000000000  0.4515344074589178
  0.7986958790990926  0.0625000000000000  0.5484655925410822
  0.7986958790990926  0.1875000000000000  0.4449829740978801
  0.5486958790990926  0.1875000000000000  0.5550170259021204
  0.7986958790990926  0.5625000000000000  0.5484655925410822
  0.7986958790990926  0.3125000000000000  0.5484655925410822
  0.5486958790990926  0.9375000000000000  0.5550170259021204
  0.0486958790990926  0.5625000000000000  0.4515344074589178
  0.5486958790990926  0.8125000000000000  0.4515344074589178
  0.2986958790990926  0.3125000000000000  0.5484655925410822
  0.2986958790990926  0.4375000000000000  0.4449829740978801
  0.0486958790990926  0.3125000000000000  0.4515344074589178
  0.0486958790990926  0.4375000000000000  0.5550170259021204
  0.7986958790990926  0.8125000000000000  0.5484655925410822
  0.7986958790990926  0.9375000000000000  0.4449829740978801
  0.7986958790990926  0.4375000000000000  0.4449829740978801
  0.7986958790990926  0.6875000000000000  0.4449829740978801
  0.5486958790990926  0.5625000000000000  0.4515344074589178
  0.5486958790990926  0.6875000000000000  0.5550170259021204
  0.7986958790990926  0.8125000000000000  0.7545472809252300
  0.5486958790990926  0.8125000000000000  0.2454527190747696
  0.0486958790990926  0.3125000000000000  0.6614309058609089
  0.0486958790990926  0.4375000000000000  0.7674417334677209
  0.2986958790990926  0.3125000000000000  0.3385690941390911
  0.2986958790990926  0.4375000000000000  0.2325582665322794
  0.0486958790990926  0.3125000000000000  0.2454527190747696
  0.0486958790990926  0.4375000000000000  0.3473440356169249
  0.5486958790990926  0.8125000000000000  0.6614309058609089
  0.5486958790990926  0.9375000000000000  0.7674417334677209
  0.7986958790990926  0.8125000000000000  0.3385690941390911
  0.7986958790990926  0.9375000000000000  0.2325582665322794
  0.5486958790990926  0.4375000000000000  0.5550170259021204
  0.0486958790990926  0.1875000000000000  0.5550170259021204
  0.2986958790990926  0.1875000000000000  0.4449829740978801
  0.2986958790990926  0.0625000000000000  0.5484655925410822
  0.0486958790990926  0.9375000000000000  0.5550170259021204
  0.0486958790990926  0.8125000000000000  0.4515344074589178
  0.2986958790990926  0.9375000000000000  0.4449829740978801
  0.0486958790990926  0.6875000000000000  0.5550170259021204
  0.5486958790990926  0.3125000000000000  0.4515344074589178
  0.5486958790990926  0.9375000000000000  0.3473440356169249
  0.5486958790990926  0.4375000000000000  0.3473440356169249
 
  0.00000000E+00  0.00000000E+00  0.00000000E+00
  0.00000000E+00  0.00000000E+00  0.00000000E+00
  0.00000000E+00  0.00000000E+00  0.00000000E+00
  0.00000000E+00  0.00000000E+00  0.00000000E+00
  0.00000000E+00  0.00000000E+00  0.00000000E+00
  0.00000000E+00  0.00000000E+00  0.00000000E+00
  0.00000000E+00  0.00000000E+00  0.00000000E+00
  0.00000000E+00  0.00000000E+00  0.00000000E+00
  0.00000000E+00  0.00000000E+00  0.00000000E+00
  0.00000000E+00  0.00000000E+00  0.00000000E+00
  0.00000000E+00  0.00000000E+00  0.00000000E+00
  0.00000000E+00  0.00000000E+00  0.00000000E+00
  0.00000000E+00  0.00000000E+00  0.00000000E+00
  0.00000000E+00  0.00000000E+00  0.00000000E+00
  0.00000000E+00  0.00000000E+00  0.00000000E+00
  0.00000000E+00  0.00000000E+00  0.00000000E+00
  0.00000000E+00  0.00000000E+00  0.00000000E+00
  0.00000000E+00  0.00000000E+00  0.00000000E+00
  0.00000000E+00  0.00000000E+00  0.00000000E+00
  0.00000000E+00  0.00000000E+00  0.00000000E+00
  0.00000000E+00  0.00000000E+00  0.00000000E+00
  0.00000000E+00  0.00000000E+00  0.00000000E+00
  0.00000000E+00  0.00000000E+00  0.00000000E+00
  0.00000000E+00  0.00000000E+00  0.00000000E+00
  0.00000000E+00  0.00000000E+00  0.00000000E+00
  0.00000000E+00  0.00000000E+00  0.00000000E+00
  0.00000000E+00  0.00000000E+00  0.00000000E+00
  0.00000000E+00  0.00000000E+00  0.00000000E+00
  0.00000000E+00  0.00000000E+00  0.00000000E+00
  0.00000000E+00  0.00000000E+00  0.00000000E+00
  0.00000000E+00  0.00000000E+00  0.00000000E+00
  0.00000000E+00  0.00000000E+00  0.00000000E+00
  0.00000000E+00  0.00000000E+00  0.00000000E+00
  0.00000000E+00  0.00000000E+00  0.00000000E+00
  0.00000000E+00  0.00000000E+00  0.00000000E+00
  0.00000000E+00  0.00000000E+00  0.00000000E+00
  0.00000000E+00  0.00000000E+00  0.00000000E+00
  0.00000000E+00  0.00000000E+00  0.00000000E+00
  0.00000000E+00  0.00000000E+00  0.00000000E+00
  0.00000000E+00  0.00000000E+00  0.00000000E+00
  0.00000000E+00  0.00000000E+00  0.00000000E+00
  0.00000000E+00  0.00000000E+00  0.00000000E+00
  0.00000000E+00  0.00000000E+00  0.00000000E+00
  0.00000000E+00  0.00000000E+00  0.00000000E+00
  0.00000000E+00  0.00000000E+00  0.00000000E+00
  0.00000000E+00  0.00000000E+00  0.00000000E+00
  0.00000000E+00  0.00000000E+00  0.00000000E+00
  0.00000000E+00  0.00000000E+00  0.00000000E+00
  0.00000000E+00  0.00000000E+00  0.00000000E+00
  0.00000000E+00  0.00000000E+00  0.00000000E+00
  0.00000000E+00  0.00000000E+00  0.00000000E+00
  0.00000000E+00  0.00000000E+00  0.00000000E+00
  0.00000000E+00  0.00000000E+00  0.00000000E+00
  0.00000000E+00  0.00000000E+00  0.00000000E+00
  0.00000000E+00  0.00000000E+00  0.00000000E+00
  0.00000000E+00  0.00000000E+00  0.00000000E+00
  0.00000000E+00  0.00000000E+00  0.00000000E+00
  0.00000000E+00  0.00000000E+00  0.00000000E+00
  0.00000000E+00  0.00000000E+00  0.00000000E+00
  0.00000000E+00  0.00000000E+00  0.00000000E+00
  0.00000000E+00  0.00000000E+00  0.00000000E+00
  0.00000000E+00  0.00000000E+00  0.00000000E+00
  0.00000000E+00  0.00000000E+00  0.00000000E+00
  0.00000000E+00  0.00000000E+00  0.00000000E+00
  0.00000000E+00  0.00000000E+00  0.00000000E+00
  0.00000000E+00  0.00000000E+00  0.00000000E+00
  0.00000000E+00  0.00000000E+00  0.00000000E+00
  0.00000000E+00  0.00000000E+00  0.00000000E+00
  0.00000000E+00  0.00000000E+00  0.00000000E+00
  0.00000000E+00  0.00000000E+00  0.00000000E+00
  0.00000000E+00  0.00000000E+00  0.00000000E+00
  0.00000000E+00  0.00000000E+00  0.00000000E+00
  0.00000000E+00  0.00000000E+00  0.00000000E+00
  0.00000000E+00  0.00000000E+00  0.00000000E+00
  0.00000000E+00  0.00000000E+00  0.00000000E+00
  0.00000000E+00  0.00000000E+00  0.00000000E+00
  0.00000000E+00  0.00000000E+00  0.00000000E+00
  0.00000000E+00  0.00000000E+00  0.00000000E+00
  0.00000000E+00  0.00000000E+00  0.00000000E+00
  0.00000000E+00  0.00000000E+00  0.00000000E+00
  0.00000000E+00  0.00000000E+00  0.00000000E+00
  0.00000000E+00  0.00000000E+00  0.00000000E+00
  0.00000000E+00  0.00000000E+00  0.00000000E+00
  0.00000000E+00  0.00000000E+00  0.00000000E+00
  0.00000000E+00  0.00000000E+00  0.00000000E+00
  0.00000000E+00  0.00000000E+00  0.00000000E+00
  0.00000000E+00  0.00000000E+00  0.00000000E+00
  0.00000000E+00  0.00000000E+00  0.00000000E+00
  0.00000000E+00  0.00000000E+00  0.00000000E+00
  0.00000000E+00  0.00000000E+00  0.00000000E+00
  0.00000000E+00  0.00000000E+00  0.00000000E+00
  0.00000000E+00  0.00000000E+00  0.00000000E+00
  0.00000000E+00  0.00000000E+00  0.00000000E+00
  0.00000000E+00  0.00000000E+00  0.00000000E+00
  0.00000000E+00  0.00000000E+00  0.00000000E+00
  0.00000000E+00  0.00000000E+00  0.00000000E+00
  0.00000000E+00  0.00000000E+00  0.00000000E+00
  0.00000000E+00  0.00000000E+00  0.00000000E+00
  0.00000000E+00  0.00000000E+00  0.00000000E+00
  0.00000000E+00  0.00000000E+00  0.00000000E+00
  0.00000000E+00  0.00000000E+00  0.00000000E+00
  0.00000000E+00  0.00000000E+00  0.00000000E+00
  0.00000000E+00  0.00000000E+00  0.00000000E+00
  0.00000000E+00  0.00000000E+00  0.00000000E+00
  0.00000000E+00  0.00000000E+00  0.00000000E+00
  0.00000000E+00  0.00000000E+00  0.00000000E+00
  0.00000000E+00  0.00000000E+00  0.00000000E+00
  0.00000000E+00  0.00000000E+00  0.00000000E+00
  0.00000000E+00  0.00000000E+00  0.00000000E+00
  0.00000000E+00  0.00000000E+00  0.00000000E+00
  0.00000000E+00  0.00000000E+00  0.00000000E+00
  0.00000000E+00  0.00000000E+00  0.00000000E+00
  0.00000000E+00  0.00000000E+00  0.00000000E+00
  0.00000000E+00  0.00000000E+00  0.00000000E+00
  0.00000000E+00  0.00000000E+00  0.00000000E+00
  0.00000000E+00  0.00000000E+00  0.00000000E+00
  0.00000000E+00  0.00000000E+00  0.00000000E+00
  0.00000000E+00  0.00000000E+00  0.00000000E+00
  0.00000000E+00  0.00000000E+00  0.00000000E+00
  0.00000000E+00  0.00000000E+00  0.00000000E+00
  0.00000000E+00  0.00000000E+00  0.00000000E+00
  0.00000000E+00  0.00000000E+00  0.00000000E+00
  0.00000000E+00  0.00000000E+00  0.00000000E+00
  0.00000000E+00  0.00000000E+00  0.00000000E+00
  0.00000000E+00  0.00000000E+00  0.00000000E+00
  0.00000000E+00  0.00000000E+00  0.00000000E+00
  0.00000000E+00  0.00000000E+00  0.00000000E+00
  0.00000000E+00  0.00000000E+00  0.00000000E+00
  0.00000000E+00  0.00000000E+00  0.00000000E+00
  0.00000000E+00  0.00000000E+00  0.00000000E+00
  0.00000000E+00  0.00000000E+00  0.00000000E+00
  0.00000000E+00  0.00000000E+00  0.00000000E+00
  0.00000000E+00  0.00000000E+00  0.00000000E+00
  0.00000000E+00  0.00000000E+00  0.00000000E+00
  0.00000000E+00  0.00000000E+00  0.00000000E+00
  0.00000000E+00  0.00000000E+00  0.00000000E+00
  0.00000000E+00  0.00000000E+00  0.00000000E+00
  0.00000000E+00  0.00000000E+00  0.00000000E+00
  0.00000000E+00  0.00000000E+00  0.00000000E+00
  0.00000000E+00  0.00000000E+00  0.00000000E+00
  0.00000000E+00  0.00000000E+00  0.00000000E+00
  0.00000000E+00  0.00000000E+00  0.00000000E+00
  0.00000000E+00  0.00000000E+00  0.00000000E+00
  0.00000000E+00  0.00000000E+00  0.00000000E+00
  0.00000000E+00  0.00000000E+00  0.00000000E+00
  0.00000000E+00  0.00000000E+00  0.00000000E+00
  0.00000000E+00  0.00000000E+00  0.00000000E+00
  0.00000000E+00  0.00000000E+00  0.00000000E+00
  0.00000000E+00  0.00000000E+00  0.00000000E+00
  0.00000000E+00  0.00000000E+00  0.00000000E+00
  0.00000000E+00  0.00000000E+00  0.00000000E+00
  0.00000000E+00  0.00000000E+00  0.00000000E+00
  0.00000000E+00  0.00000000E+00  0.00000000E+00
  0.00000000E+00  0.00000000E+00  0.00000000E+00
  0.00000000E+00  0.00000000E+00  0.00000000E+00
  0.00000000E+00  0.00000000E+00  0.00000000E+00
  0.00000000E+00  0.00000000E+00  0.00000000E+00
  0.00000000E+00  0.00000000E+00  0.00000000E+00
  0.00000000E+00  0.00000000E+00  0.00000000E+00
  0.00000000E+00  0.00000000E+00  0.00000000E+00
  0.00000000E+00  0.00000000E+00  0.00000000E+00
  0.00000000E+00  0.00000000E+00  0.00000000E+00
  0.00000000E+00  0.00000000E+00  0.00000000E+00
  0.00000000E+00  0.00000000E+00  0.00000000E+00
  0.00000000E+00  0.00000000E+00  0.00000000E+00
  0.00000000E+00  0.00000000E+00  0.00000000E+00
  0.00000000E+00  0.00000000E+00  0.00000000E+00
  0.00000000E+00  0.00000000E+00  0.00000000E+00
  0.00000000E+00  0.00000000E+00  0.00000000E+00
  0.00000000E+00  0.00000000E+00  0.00000000E+00
  0.00000000E+00  0.00000000E+00  0.00000000E+00
  0.00000000E+00  0.00000000E+00  0.00000000E+00
  0.00000000E+00  0.00000000E+00  0.00000000E+00
  0.00000000E+00  0.00000000E+00  0.00000000E+00
  0.00000000E+00  0.00000000E+00  0.00000000E+00
  0.00000000E+00  0.00000000E+00  0.00000000E+00
  0.00000000E+00  0.00000000E+00  0.00000000E+00
  0.00000000E+00  0.00000000E+00  0.00000000E+00
  0.00000000E+00  0.00000000E+00  0.00000000E+00
  0.00000000E+00  0.00000000E+00  0.00000000E+00
  0.00000000E+00  0.00000000E+00  0.00000000E+00
  0.00000000E+00  0.00000000E+00  0.00000000E+00
  0.00000000E+00  0.00000000E+00  0.00000000E+00
  0.00000000E+00  0.00000000E+00  0.00000000E+00
  0.00000000E+00  0.00000000E+00  0.00000000E+00
  0.00000000E+00  0.00000000E+00  0.00000000E+00
  0.00000000E+00  0.00000000E+00  0.00000000E+00
  0.00000000E+00  0.00000000E+00  0.00000000E+00
  0.00000000E+00  0.00000000E+00  0.00000000E+00
  0.00000000E+00  0.00000000E+00  0.00000000E+00
  0.00000000E+00  0.00000000E+00  0.00000000E+00
  0.00000000E+00  0.00000000E+00  0.00000000E+00
  0.00000000E+00  0.00000000E+00  0.00000000E+00
  0.00000000E+00  0.00000000E+00  0.00000000E+00
  0.00000000E+00  0.00000000E+00  0.00000000E+00
  0.00000000E+00  0.00000000E+00  0.00000000E+00
  0.00000000E+00  0.00000000E+00  0.00000000E+00
  0.00000000E+00  0.00000000E+00  0.00000000E+00
  0.00000000E+00  0.00000000E+00  0.00000000E+00
  0.00000000E+00  0.00000000E+00  0.00000000E+00
  0.00000000E+00  0.00000000E+00  0.00000000E+00
  0.00000000E+00  0.00000000E+00  0.00000000E+00
  0.00000000E+00  0.00000000E+00  0.00000000E+00
  0.00000000E+00  0.00000000E+00  0.00000000E+00
  0.00000000E+00  0.00000000E+00  0.00000000E+00
  0.00000000E+00  0.00000000E+00  0.00000000E+00
  0.00000000E+00  0.00000000E+00  0.00000000E+00
  0.00000000E+00  0.00000000E+00  0.00000000E+00
  0.00000000E+00  0.00000000E+00  0.00000000E+00
  0.00000000E+00  0.00000000E+00  0.00000000E+00
  0.00000000E+00  0.00000000E+00  0.00000000E+00
  0.00000000E+00  0.00000000E+00  0.00000000E+00
  0.00000000E+00  0.00000000E+00  0.00000000E+00
  0.00000000E+00  0.00000000E+00  0.00000000E+00
  0.00000000E+00  0.00000000E+00  0.00000000E+00
  0.00000000E+00  0.00000000E+00  0.00000000E+00
  0.00000000E+00  0.00000000E+00  0.00000000E+00
  0.00000000E+00  0.00000000E+00  0.00000000E+00
  0.00000000E+00  0.00000000E+00  0.00000000E+00
  0.00000000E+00  0.00000000E+00  0.00000000E+00
  0.00000000E+00  0.00000000E+00  0.00000000E+00
  0.00000000E+00  0.00000000E+00  0.00000000E+00
  0.00000000E+00  0.00000000E+00  0.00000000E+00
  0.00000000E+00  0.00000000E+00  0.00000000E+00
  0.00000000E+00  0.00000000E+00  0.00000000E+00
  0.00000000E+00  0.00000000E+00  0.00000000E+00
  0.00000000E+00  0.00000000E+00  0.00000000E+00
  0.00000000E+00  0.00000000E+00  0.00000000E+00
  0.00000000E+00  0.00000000E+00  0.00000000E+00
  0.00000000E+00  0.00000000E+00  0.00000000E+00
  0.00000000E+00  0.00000000E+00  0.00000000E+00
  0.00000000E+00  0.00000000E+00  0.00000000E+00
  0.00000000E+00  0.00000000E+00  0.00000000E+00
  0.00000000E+00  0.00000000E+00  0.00000000E+00
  0.00000000E+00  0.00000000E+00  0.00000000E+00
  0.00000000E+00  0.00000000E+00  0.00000000E+00
  0.00000000E+00  0.00000000E+00  0.00000000E+00
  0.00000000E+00  0.00000000E+00  0.00000000E+00
  0.00000000E+00  0.00000000E+00  0.00000000E+00
  0.00000000E+00  0.00000000E+00  0.00000000E+00
  0.00000000E+00  0.00000000E+00  0.00000000E+00
  0.00000000E+00  0.00000000E+00  0.00000000E+00
  0.00000000E+00  0.00000000E+00  0.00000000E+00
  0.00000000E+00  0.00000000E+00  0.00000000E+00
  0.00000000E+00  0.00000000E+00  0.00000000E+00
  0.00000000E+00  0.00000000E+00  0.00000000E+00
  0.00000000E+00  0.00000000E+00  0.00000000E+00